22
3 0 1 0
3 0 4 0
3 0 7 0
3 0 5 0
3 0 9 0
3 0 10 0
3 0 6 0
5 0 13 14 15 0
3 0 17 0
3 0 12 0
3 0 3 0
3 0 18 0
4 0 23 11 0
3 0 8 0
4 0 16 21 0
3 0 28 0
4 0 30 34 0
3 0 32 0
6 0 29 31 26 36 0
4 0 2 22 0
5 0 20 19 33 0
6 0 24 27 25 35 0
